/*Função de minimo*/
min: 1 X1_1 + 2 X1_2 + 10000 X1_3 + 3 X1_4 + 1 X1_5 + 1 X2_1 + 3 X2_2 + 1 X2_3 + 10000 X2_4 + 2 X2_5 + 2 X3_1 + 1 X3_2 + 2 X3_3 + 2 X3_4 + 2 X3_5 + 1 X4_1 + 10000 X4_2 + 2 X4_3 + 2 X4_4 + 1 X4_5 + 3 X5_1 + 1 X5_2 + 1 X5_3 + 1 X5_4 + 1 X5_5 + 4 X6_1 + 1 X6_2 + 3 X6_3 + 3 X6_4 + 5 X6_5;

/*Limite de oferta*/
C1: X1_1 + X1_2 + X1_3 + X1_4 + X1_5 <= 2;

C2: X2_1 + X2_2 + X2_3 + X2_4 + X2_5 <= 4;

C3: X3_1 + X3_2 + X3_3 + X3_4 + X3_5 <= 3;

C4: X4_1 + X4_2 + X4_3 + X4_4 + X4_5 <= 4;

C5: X5_1 + X5_2 + X5_3 + X5_4 + X5_5 <= 5;

C6: X6_1 + X6_2 + X6_3 + X6_4 + X6_5 <= 2;

/*Limite de demanda*/
C7: X1_1 + X2_1 + X3_1 + X4_1 + X5_1 + X6_1 >= 6;

C8: X1_2 + X2_2 + X3_2 + X4_2 + X5_2 + X6_2 >= 4;

C9: X1_3 + X2_3 + X3_3 + X4_3 + X5_3 + X6_3 >= 2;

C10: X1_4 + X2_4 + X3_4 + X4_4 + X5_4 + X6_4 >= 3;

C11: X1_5 + X2_5 + X3_5 + X4_5 + X5_5 + X6_5 >= 2;

/*Nenhum transporte é menor que zero*/
C12: X1_1 >= 0;
C13: X1_2 >= 0;
C14: X1_3 >= 0;
C15: X1_4 >= 0;
C16: X1_5 >= 0;
C17: X2_1 >= 0;
C18: X2_2 >= 0;
C19: X2_3 >= 0;
C20: X2_4 >= 0;
C21: X2_5 >= 0;
C22: X3_1 >= 0;
C23: X3_2 >= 0;
C24: X3_3 >= 0;
C25: X3_4 >= 0;
C26: X3_5 >= 0;
C27: X4_1 >= 0;
C28: X4_2 >= 0;
C29: X4_3 >= 0;
C30: X4_4 >= 0;
C31: X4_5 >= 0;
C32: X5_1 >= 0;
C33: X5_2 >= 0;
C34: X5_3 >= 0;
C35: X5_4 >= 0;
C36: X5_5 >= 0;
C37: X6_1 >= 0;
C38: X6_2 >= 0;
C39: X6_3 >= 0;
C40: X6_4 >= 0;
C41: X6_5 >= 0;
/*Todos os transportes são inteiros*/
int X1_1;
int X1_2;
int X1_3;
int X1_4;
int X1_5;
int X2_1;
int X2_2;
int X2_3;
int X2_4;
int X2_5;
int X3_1;
int X3_2;
int X3_3;
int X3_4;
int X3_5;
int X4_1;
int X4_2;
int X4_3;
int X4_4;
int X4_5;
int X5_1;
int X5_2;
int X5_3;
int X5_4;
int X5_5;
int X6_1;
int X6_2;
int X6_3;
int X6_4;
int X6_5;
